79 80 81 59 58 57 82 83 56 55 53 54 52 50 51 84 85 86 87 90 92 91 46 45 47 48 49 43 44 42 39 41 40 38 37 36 35 34 33 32 30 29 28 27 26 25 24 31 22 23 21 12 13 14 15 16 11 10 9 7 8 17 18 19 20 568 569 570 571 573 572 6 5 0 4 1 2 3 455 456 457 458 459 460 461 462 463 497 496 464 465 466 467 468 469 470 495 471 472 494 518 519 520 521 522 523 526 525 524 493 492 491 490 529 528 527 512 513 511 510 509 516 515 514 517 503 502 498 501 500 499 452 453 450 448 447 446 445 444 443 442 449 441 440 439 454 438 437 436 435 434 433 432 430 431 429 428 427 426 423 422 421 420 419 418 417 413 414 416 415 352 353 354 355 357 358 351 350 349 348 347 361 359 360 401 403 402 356 412 411 410 384 383 424 425 382 386 387 385 409 408 407 406 405 404 400 399 398 397 394 393 392 391 388 389 390 381 380 379 378 377 376 375 395 396 371 372 373 374 315 314 316 313 312 451 311 310 309 308 505 504 506 507 508 302 301 303 304 307 305 306 318 317 319 320 321 322 323 324 325 326 327 328 329 366 367 370 369 368 365 364 363 362 346 345 344 343 342 341 340 330 331 332 333 339 338 337 336 335 334 283 284 285 286 287 280 281 282 279 278 277 276 288 289 290 275 274 273 292 291 293 294 295 296 270 268 269 272 271 267 297 298 266 265 264 263 261 260 259 258 262 299 300 257 256 255 253 254 252 251 250 249 248 241 242 243 244 245 247 246 238 239 240 237 236 235 234 232 225 226 190 191 192 219 218 220 221 222 224 223 217 216 215 214 213 212 211 210 209 205 206 207 208 203 204 202 201 200 199 198 197 196 195 194 193 184 185 183 182 181 180 179 178 177 176 540 539 537 538 187 188 186 227 189 228 229 230 231 533 532 531 233 530 489 488 534 536 535 487 486 485 484 483 482 481 480 479 478 477 476 475 473 474 567 566 565 563 562 561 560 559 558 557 556 555 554 553 552 99 100 102 101 551 550 564 549 548 545 546 547 544 543 541 542 107 109 108 173 174 175 172 170 171 169 168 162 163 167 166 164 165 154 155 156 159 158 157 153 147 148 152 149 150 151 146 145 144 143 142 141 140 139 136 135 134 133 132 131 160 161 113 112 111 110 114 115 116 130 129 137 138 128 127 126 125 124 69 70 68 67 66 65 64 76 75 74 73 72 71 123 122 117 121 120 119 118 106 105 104 103 98 96 95 97 94 93 89 88 77 78 62 63 60 61